0,1
0,3
0,13
0,14
0,16
0,18
0,19
0,20
0,22
0,23
0,25
0,27
0,34
0,38
0,41
0,43
0,47
0,50
0,56
0,61
0,68
0,74
0,121
1,0
1,2
1,4
1,6
1,8
1,10
1,15
1,16
1,17
1,21
1,23
1,24
1,26
1,28
1,30
1,32
1,35
1,36
1,37
1,39
1,40
1,42
1,44
1,45
1,48
1,52
1,54
1,57
1,59
1,63
1,65
1,66
1,70
1,72
1,76
1,78
1,80
1,82
1,85
1,87
1,94
1,109
1,111
1,114
1,116
1,118
1,123
1,125
1,127
2,3
2,12
2,13
2,14
2,18
2,19
2,20
2,22
2,25
2,26
2,29
2,34
2,38
2,41
2,46
2,49
2,51
2,53
2,55
2,58
2,60
2,62
2,68
2,73
2,75
2,91
2,119
2,121
3,0
3,1
3,6
3,8
3,11
3,15
3,16
3,17
3,19
3,21
3,23
3,24
3,27
3,32
3,35
3,37
3,39
3,42
3,43
3,44
3,47
3,49
3,56
3,61
3,64
3,66
3,69
3,71
3,77
3,79
3,81
3,83
3,85
3,110
3,112
3,114
3,116
3,122
3,124
3,126
4,3
4,4
4,9
4,12
4,13
4,14
4,18
4,20
4,21
4,22
4,24
4,25
4,26
4,28
4,30
4,33
4,36
4,38
4,40
4,41
4,45
4,46
4,50
4,52
4,54
4,58
4,60
4,63
4,65
4,67
4,72
4,74
4,76
4,86
4,91
4,93
4,96
4,106
4,108
4,117
4,119
4,121
5,1
5,2
5,5
5,7
5,11
5,14
5,15
5,16
5,17
5,19
5,21
5,23
5,27
5,34
5,37
5,39
5,43
5,47
5,49
5,51
5,53
5,56
5,59
5,68
5,70
5,79
5,81
5,111
5,113
5,115
5,120
5,123
5,125
5,127
6,0
6,4
6,8
6,10
6,12
6,13
6,18
6,19
6,20
6,22
6,23
6,24
6,25
6,26
6,29
6,31
6,33
6,35
6,37
6,40
6,41
6,42
6,44
6,45
6,55
6,58
6,61
6,63
6,65
6,72
6,74
6,77
6,80
6,83
6,85
6,88
6,92
6,105
6,109
6,118
7,1
7,2
7,3
7,5
7,9
7,11
7,13
7,14
7,15
7,16
7,17
7,19
7,21
7,25
7,27
7,34
7,38
7,39
7,43
7,46
7,47
7,49
7,51
7,52
7,54
7,57
7,60
7,64
7,66
7,68
7,70
7,73
7,75
7,79
7,103
7,107
7,113
7,115
7,117
7,121
7,123
7,125
8,6
8,10
8,12
8,17
8,18
8,20
8,21
8,22
8,23
8,24
8,26
8,29
8,30
8,32
8,35
8,36
8,37
8,40
8,42
8,44
8,48
8,53
8,59
8,62
8,67
8,71
8,76
8,78
8,82
8,84
8,88
8,92
8,94
8,96
8,109
8,111
8,119
8,126
9,1
9,3
9,4
9,7
9,8
9,11
9,13
9,14
9,15
9,16
9,18
9,19
9,22
9,24
9,25
9,27
9,33
9,38
9,39
9,41
9,43
9,45
9,46
9,49
9,51
9,52
9,55
9,57
9,60
9,63
9,65
9,69
9,73
9,80
9,86
9,90
9,105
9,112
9,114
9,117
9,121
9,123
9,127
10,0
10,2
10,5
10,9
10,10
10,12
10,14
10,17
10,20
10,21
10,23
10,26
10,29
10,31
10,34
10,35
10,37
10,40
10,42
10,47
10,48
10,53
10,56
10,58
10,61
10,64
10,66
10,68
10,71
10,74
10,76
10,78
10,81
10,83
10,101
10,103
10,107
10,109
10,119
10,124
11,1
11,3
11,6
11,11
11,13
11,15
11,16
11,18
11,19
11,20
11,22
11,24
11,25
11,27
11,32
11,36
11,38
11,39
11,41
11,43
11,44
11,45
11,49
11,51
11,54
11,59
11,62
11,70
11,73
11,84
11,86
11,92
11,111
11,113
11,115
11,117
11,120
11,122
11,125
11,127
12,2
12,5
12,7
12,8
12,9
12,10
12,12
12,13
12,14
12,16
12,17
12,18
12,21
12,22
12,23
12,25
12,26
12,29
12,34
12,37
12,40
12,46
12,47
12,50
12,52
12,55
12,57
12,60
12,63
12,65
12,67
12,69
12,72
12,75
12,77
12,79
12,89
12,99
12,103
12,105
12,107
12,109
13,0
13,3
13,6
13,11
13,15
13,19
13,20
13,23
13,24
13,27
13,30
13,32
13,33
13,35
13,37
13,39
13,41
13,42
13,43
13,44
13,48
13,51
13,54
13,56
13,58
13,62
13,66
13,70
13,74
13,80
13,82
13,85
13,87
13,92
13,101
13,112
13,114
13,116
13,118
13,120
13,122
13,124
13,126
14,1
14,2
14,4
14,5
14,8
14,10
14,12
14,13
14,14
14,16
14,17
14,18
14,20
14,21
14,22
14,25
14,26
14,28
14,34
14,37
14,40
14,45
14,46
14,49
14,53
14,60
14,63
14,65
14,68
14,71
14,73
14,77
14,83
14,97
14,100
14,104
14,108
14,110
15,6
15,7
15,9
15,12
15,15
15,16
15,18
15,20
15,22
15,23
15,24
15,27
15,29
15,31
15,35
15,38
15,39
15,41
15,43
15,44
15,47
15,50
15,51
15,54
15,56
15,58
15,59
15,61
15,64
15,67
15,69
15,72
15,75
15,78
15,80
15,86
15,89
15,98
15,101
15,103
15,106
15,112
15,114
15,116
15,118
15,120
15,122
15,124
16,0
16,1
16,3
16,4
16,8
16,11
16,13
16,14
16,17
16,19
16,21
16,25
16,26
16,32
16,34
16,36
16,37
16,40
16,42
16,45
16,48
16,52
16,55
16,62
16,65
16,74
16,82
16,84
16,96
16,99
16,102
16,105
16,108
16,110
16,126
17,2
17,5
17,6
17,7
17,9
17,11
17,12
17,15
17,16
17,18
17,20
17,22
17,23
17,24
17,27
17,28
17,30
17,33
17,35
17,39
17,41
17,43
17,46
17,47
17,50
17,51
17,53
17,56
17,58
17,60
17,63
17,66
17,68
17,70
17,72
17,76
17,78
17,80
17,85
17,87
17,98
17,100
17,104
17,106
17,108
17,112
17,115
17,117
17,119
17,122
17,124
18,0
18,8
18,10
18,13
18,14
18,16
18,17
18,19
18,20
18,21
18,22
18,24
18,25
18,26
18,29
18,32
18,36
18,37
18,38
18,40
18,44
18,48
18,54
18,57
18,59
18,62
18,64
18,69
18,71
18,73
18,75
18,79
18,82
18,97
18,102
18,105
18,107
18,109
18,111
18,113
18,120
18,125
18,127
19,1
19,3
19,4
19,6
19,11
19,12
19,15
19,18
19,23
19,25
19,27
19,31
19,34
19,39
19,41
19,42
19,43
19,45
19,46
19,49
19,50
19,52
19,55
19,60
19,65
19,67
19,74
19,78
19,81
19,85
19,100
19,101
19,103
19,108
19,110
19,112
19,114
19,115
19,117
19,122
20,5
20,7
20,8
20,9
20,10
20,13
20,14
20,16
20,17
20,19
20,20
20,21
20,22
20,24
20,26
20,28
20,30
20,33
20,35
20,36
20,37
20,40
20,44
20,47
20,51
20,53
20,56
20,58
20,61
20,63
20,66
20,69
20,72
20,76
20,80
20,83
20,92
20,98
20,104
20,105
20,106
20,109
20,111
20,114
20,116
20,118
20,120
20,123
20,126
21,0
21,2
21,3
21,11
21,12
21,14
21,15
21,18
21,19
21,22
21,23
21,25
21,27
21,32
21,38
21,39
21,42
21,46
21,48
21,50
21,54
21,59
21,62
21,64
21,68
21,70
21,73
21,78
21,84
21,98
21,99
21,102
21,107
21,112
21,113
21,115
21,116
21,117
21,119
21,121
21,124
22,5
22,7
22,8
22,9
22,10
22,11
22,13
22,16
22,17
22,20
22,21
22,24
22,25
22,28
22,30
22,33
22,35
22,36
22,37
22,40
22,41
22,43
22,44
22,49
22,52
22,56
22,57
22,61
22,65
22,72
22,74
22,76
22,79
22,81
22,109
22,110
22,114
22,118
22,119
22,122
22,127
23,1
23,3
23,4
23,6
23,12
23,14
23,15
23,17
23,18
23,19
23,21
23,22
23,23
23,26
23,27
23,31
23,34
23,38
23,39
23,42
23,45
23,46
23,47
23,50
23,54
23,59
23,63
23,66
23,68
23,70
23,75
23,99
23,112
23,115
23,116
23,117
23,120
23,121
23,123
23,124
23,125
24,1
24,7
24,8
24,9
24,10
24,11
24,13
24,15
24,16
24,19
24,20
24,23
24,24
24,25
24,28
24,30
24,33
24,36
24,40
24,43
24,48
24,52
24,53
24,56
24,58
24,61
24,64
24,69
24,113
24,115
24,118
24,119
24,122
24,126
24,127
25,3
25,4
25,6
25,11
25,12
25,13
25,14
25,16
25,17
25,18
25,20
25,21
25,22
25,26
25,27
25,32
25,34
25,35
25,37
25,38
25,39
25,41
25,42
25,44
25,45
25,47
25,50
25,55
25,63
25,90
25,99
25,116
25,120
25,121
25,123
25,124
25,125
26,1
26,7
26,8
26,9
26,10
26,15
26,19
26,21
26,23
26,24
26,25
26,28
26,30
26,36
26,40
26,49
26,86
26,96
26,111
26,113
26,115
26,117
26,118
26,119
26,122
26,126
26,127
27,0
27,2
27,3
27,4
27,5
27,8
27,11
27,12
27,13
27,14
27,16
27,17
27,18
27,20
27,22
27,24
27,26
27,27
27,29
27,32
27,34
27,37
27,39
27,42
27,43
27,45
27,51
27,53
27,78
27,82
27,114
27,120
27,121
27,123
27,124
28,6
28,9
28,10
28,14
28,15
28,18
28,19
28,20
28,21
28,23
28,25
28,31
28,33
28,35
28,36
28,38
28,40
28,47
28,55
28,57
28,71
28,75
28,93
28,99
28,112
28,116
28,125
28,126
29,1
29,3
29,7
29,8
29,11
29,12
29,13
29,16
29,17
29,21
29,22
29,23
29,24
29,26
29,27
29,30
29,37
29,42
29,45
29,49
29,51
29,52
29,53
29,54
29,68
29,88
29,114
29,118
29,120
29,122
29,126
29,127
30,0
30,2
30,4
30,6
30,8
30,9
30,10
30,13
30,15
30,18
30,19
30,20
30,25
30,28
30,32
30,34
30,35
30,38
30,46
30,48
30,73
30,78
30,81
30,84
30,93
30,112
30,115
30,119
30,123
30,124
31,5
31,11
31,12
31,14
31,16
31,17
31,19
31,21
31,22
31,23
31,24
31,26
31,27
31,30
31,36
31,43
31,45
31,49
31,51
31,53
31,113
31,118
31,121
31,123
31,125
32,0
32,2
32,3
32,6
32,7
32,8
32,9
32,10
32,13
32,15
32,16
32,18
32,20
32,22
32,25
32,29
32,32
32,34
32,37
32,44
32,46
32,47
32,55
32,57
32,62
32,66
32,69
32,74
32,116
32,126
33,1
33,4
33,5
33,11
33,12
33,14
33,17
33,19
33,20
33,21
33,23
33,24
33,26
33,27
33,36
33,40
33,48
33,49
33,50
33,52
33,53
33,56
33,58
33,78
33,81
33,85
33,90
33,112
33,114
33,117
34,2
34,6
34,7
34,8
34,9
34,10
34,13
34,14
34,15
34,16
34,18
34,21
34,22
34,25
34,28
34,30
34,32
34,34
34,38
34,42
34,44
34,45
34,46
34,47
34,54
34,61
34,71
34,76
34,94
34,115
34,119
35,0
35,3
35,4
35,5
35,11
35,12
35,17
35,19
35,20
35,23
35,24
35,26
35,36
35,40
35,44
35,48
35,50
35,52
35,53
35,55
35,56
35,58
35,68
35,83
35,117
35,120
36,1
36,2
36,6
36,7
36,8
36,9
36,10
36,13
36,14
36,15
36,16
36,18
36,21
36,22
36,25
36,27
36,29
36,31
36,33
36,35
36,37
36,41
36,42
36,46
36,47
36,49
36,51
36,67
36,73
36,80
36,87
36,90
36,95
36,113
36,116
36,119
36,126
37,3
37,4
37,5
37,10
37,11
37,12
37,15
37,17
37,18
37,19
37,20
37,23
37,24
37,38
37,39
37,43
37,44
37,45
37,48
37,50
37,52
37,53
37,54
37,56
37,59
37,61
37,64
37,77
37,82
37,118
37,120
37,123
37,125
38,1
38,6
38,7
38,8
38,9
38,13
38,14
38,16
38,21
38,27
38,30
38,33
38,36
38,40
38,41
38,42
38,46
38,47
38,49
38,51
38,54
38,55
38,57
38,70
38,75
38,89
38,96
38,114
38,117
38,121
38,124
39,2
39,3
39,4
39,5
39,10
39,11
39,12
39,15
39,17
39,18
39,20
39,24
39,25
39,28
39,31
39,34
39,36
39,37
39,39
39,42
39,43
39,44
39,45
39,48
39,50
39,52
39,56
39,58
39,60
39,63
39,67
39,72
39,80
39,84
39,86
39,93
39,100
39,119
40,6
40,7
40,8
40,9
40,14
40,16
40,19
40,22
40,26
40,32
40,38
40,40
40,41
40,46
40,47
40,49
40,51
40,53
40,55
40,58
40,61
40,65
40,69
40,75
40,78
40,91
40,94
40,96
40,98
40,114
40,118
40,122
40,124
41,0
41,2
41,4
41,5
41,10
41,11
41,12
41,14
41,15
41,17
41,20
41,24
41,27
41,29
41,30
41,33
41,34
41,35
41,36
41,39
41,41
41,42
41,43
41,44
41,45
41,48
41,50
41,51
41,52
41,54
41,56
41,59
41,61
41,73
41,80
41,82
41,85
41,87
41,89
41,99
41,100
41,101
41,116
41,120
41,121
42,1
42,3
42,6
42,7
42,8
42,9
42,18
42,23
42,25
42,31
42,37
42,38
42,40
42,44
42,46
42,47
42,49
42,51
42,53
42,55
42,58
42,62
42,63
42,70
42,74
42,76
42,78
42,83
42,88
42,92
42,94
42,96
42,101
43,2
43,4
43,5
43,11
43,13
43,15
43,20
43,22
43,26
43,27
43,28
43,29
43,30
43,32
43,33
43,35
43,36
43,39
43,40
43,41
43,42
43,43
43,45
43,48
43,50
43,52
43,54
43,56
43,57
43,60
43,64
43,79
43,81
43,85
43,90
43,103
43,115
43,118
43,120
43,122
44,0
44,6
44,7
44,9
44,10
44,12
44,16
44,18
44,24
44,31
44,34
44,37
44,38
44,40
44,42
44,44
44,46
44,47
44,49
44,51
44,53
44,55
44,58
44,59
44,62
44,73
44,77
44,83
44,86
44,88
44,92
44,94
44,119
45,3
45,8
45,14
45,17
45,20
45,22
45,23
45,25
45,26
45,27
45,29
45,30
45,32
45,33
45,35
45,36
45,38
45,39
45,41
45,43
45,45
45,49
45,50
45,52
45,54
45,57
45,60
45,61
45,63
45,66
45,71
45,116
45,121
46,1
46,6
46,7
46,12
46,16
46,19
46,21
46,24
46,28
46,32
46,34
46,37
46,39
46,40
46,42
46,44
46,45
46,47
46,48
46,51
46,53
46,56
46,59
46,78
46,81
46,83
46,85
46,87
46,118
46,120
46,123
47,2
47,4
47,10
47,14
47,18
47,20
47,23
47,25
47,26
47,27
47,29
47,30
47,31
47,33
47,35
47,36
47,37
47,38
47,41
47,43
47,46
47,49
47,52
47,54
47,55
47,58
47,61
47,64
47,66
47,72
47,73
47,75
47,76
47,80
47,115
48,7
48,12
48,15
48,17
48,21
48,22
48,24
48,28
48,32
48,34
48,35
48,37
48,39
48,40
48,42
48,44
48,45
48,47
48,50
48,56
48,60
48,68
48,72
48,74
48,83
48,118
48,120
48,121
49,0
49,2
49,5
49,10
49,13
49,16
49,18
49,19
49,20
49,23
49,25
49,26
49,27
49,29
49,31
49,33
49,36
49,38
49,40
49,41
49,43
49,46
49,48
49,52
49,54
49,56
49,57
49,59
49,62
49,70
49,73
49,87
49,121
49,123
50,3
50,8
50,11
50,12
50,15
50,21
50,22
50,24
50,26
50,28
50,30
50,31
50,32
50,33
50,34
50,35
50,36
50,37
50,39
50,41
50,42
50,44
50,45
50,47
50,49
50,51
50,58
50,60
50,66
50,68
50,71
50,116
50,119
50,121
51,1
51,9
51,14
51,17
51,18
51,19
51,20
51,23
51,24
51,27
51,29
51,34
51,36
51,38
51,39
51,40
51,43
51,46
51,54
51,56
51,58
51,61
51,64
51,66
51,74
51,121
52,4
52,6
52,10
52,15
52,21
52,22
52,24
52,25
52,26
52,27
52,28
52,30
52,31
52,32
52,33
52,35
52,36
52,37
52,38
52,40
52,41
52,42
52,43
52,44
52,45
52,47
52,49
52,52
52,57
52,59
52,62
52,65
52,67
52,89
52,117
52,121
53,1
53,8
53,11
53,13
53,16
53,17
53,18
53,19
53,20
53,23
53,29
53,31
53,33
53,34
53,38
53,39
53,41
53,48
53,50
53,69
53,71
53,83
53,119
53,122
54,6
54,9
54,12
54,14
54,21
54,22
54,23
54,24
54,25
54,26
54,27
54,28
54,30
54,32
54,34
54,35
54,36
54,37
54,39
54,40
54,42
54,43
54,44
54,45
54,46
54,52
54,58
54,64
54,66
54,74
54,120
55,4
55,11
55,15
55,16
55,17
55,18
55,19
55,20
55,24
55,29
55,30
55,31
55,32
55,33
55,37
55,38
55,41
55,43
55,48
55,50
55,54
55,63
55,67
55,70
55,117
55,121
56,2
56,7
56,9
56,10
56,13
56,21
56,22
56,23
56,25
56,26
56,27
56,28
56,30
56,34
56,35
56,39
56,40
56,42
56,44
56,45
56,46
56,51
56,57
56,74
56,80
56,119
57,8
57,11
57,12
57,14
57,15
57,16
57,17
57,18
57,19
57,20
57,21
57,23
57,24
57,27
57,29
57,31
57,32
57,33
57,36
57,37
57,41
57,43
57,47
57,52
57,65
57,67
57,70
57,120
57,121
57,122
57,123
58,4
58,6
58,10
58,22
58,25
58,26
58,28
58,30
58,38
58,40
58,44
58,45
58,48
58,49
58,53
58,55
58,66
58,76
58,80
58,82
58,89
58,119
59,9
59,11
59,14
59,15
59,16
59,17
59,18
59,19
59,20
59,21
59,23
59,24
59,27
59,29
59,34
59,36
59,39
59,42
59,43
59,47
59,51
59,73
59,78
59,120
59,121
59,122
59,123
59,124
60,2
60,5
60,7
60,10
60,12
60,22
60,25
60,26
60,32
60,37
60,40
60,41
60,44
60,45
60,46
60,48
60,52
60,54
60,56
60,67
60,69
60,71
60,88
60,119
60,125
61,9
61,11
61,13
61,14
61,15
61,16
61,18
61,19
61,21
61,23
61,24
61,30
61,35
61,42
61,43
61,50
61,55
61,81
61,120
61,121
61,123
61,124
62,4
62,6
62,8
62,11
62,17
62,26
62,28
62,33
62,38
62,40
62,44
62,45
62,47
62,48
62,49
62,52
62,54
62,60
62,69
62,86
62,119
62,121
62,122
62,125
63,9
63,12
63,13
63,15
63,18
63,20
63,22
63,23
63,24
63,31
63,41
63,43
63,51
63,53
63,60
63,70
63,87
63,89
63,120
63,124
63,126
64,3
64,10
64,11
64,14
64,17
64,19
64,21
64,26
64,29
64,36
64,39
64,42
64,45
64,46
64,47
64,49
64,50
64,55
64,71
64,80
64,84
64,91
64,120
64,121
64,122
64,123
64,125
64,127
65,6
65,8
65,12
65,16
65,30
65,34
65,44
65,48
65,52
65,57
65,60
65,90
65,93
65,98
65,121
65,125
66,1
66,7
66,10
66,11
66,13
66,15
66,20
66,24
66,27
66,31
66,41
66,43
66,45
66,47
66,50
66,55
66,89
66,91
66,122
66,123
66,127
67,9
67,12
67,16
67,17
67,29
67,37
67,46
67,51
67,53
67,56
67,61
67,70
67,79
67,81
67,96
67,121
67,122
67,125
68,0
68,7
68,11
68,14
68,19
68,31
68,32
68,34
68,39
68,41
68,43
68,45
68,48
68,50
68,54
68,80
68,122
68,123
68,124
68,126
69,2
69,9
69,12
69,15
69,16
69,29
69,44
69,46
69,52
69,78
69,96
69,121
69,124
69,125
69,127
70,8
70,10
70,13
70,30
70,32
70,33
70,38
70,45
70,47
70,48
70,50
70,54
70,61
70,70
70,81
70,120
70,122
70,123
71,1
71,4
71,11
71,15
71,17
71,28
71,31
71,36
71,41
71,43
71,53
71,55
71,78
71,110
71,123
71,124
71,125
71,127
72,0
72,10
72,12
72,14
72,30
72,38
72,40
72,44
72,45
72,47
72,50
72,83
72,120
72,121
72,122
72,123
72,126
73,2
73,7
73,9
73,29
73,31
73,33
73,39
73,42
73,43
73,46
73,51
73,53
73,109
73,122
73,124
73,125
73,127
74,1
74,11
74,15
74,39
74,44
74,54
74,120
74,121
74,122
74,123
74,125
74,127
75,3
75,9
75,28
75,40
75,41
75,42
75,45
75,49
75,51
75,60
75,76
75,108
75,121
75,123
75,124
75,125
75,126
76,1
76,5
76,11
76,29
76,31
76,39
76,43
76,47
76,54
76,62
76,120
76,121
76,122
76,123
76,125
76,126
76,127
77,2
77,4
77,30
77,41
77,44
77,67
77,122
77,123
77,124
77,126
78,1
78,6
78,10
78,13
78,28
78,31
78,38
78,43
78,47
78,50
78,51
78,53
78,55
78,61
78,70
78,81
78,108
78,123
78,124
78,125
78,126
78,127
79,2
79,4
79,12
79,15
79,29
79,41
79,45
79,46
79,51
79,72
79,106
79,123
79,125
79,127
80,1
80,3
80,5
80,8
80,48
80,55
80,74
80,118
80,124
80,125
80,126
81,6
81,7
81,14
81,18
81,20
81,23
81,25
81,26
81,28
81,36
81,39
81,42
81,52
81,56
81,69
81,83
81,119
81,123
81,125
81,126
81,127
82,2
82,3
82,4
82,10
82,17
82,21
82,27
82,29
82,30
82,35
82,37
82,46
82,86
82,120
82,121
83,5
83,6
83,7
83,8
83,9
83,12
83,15
83,19
83,23
83,25
83,28
83,31
83,32
83,33
83,34
83,37
83,72
83,108
83,119
83,125
84,3
84,10
84,11
84,13
84,16
84,18
84,20
84,26
84,28
84,30
84,35
84,38
84,39
84,42
84,73
84,88
84,90
84,106
84,113
84,117
84,121
84,123
85,2
85,4
85,5
85,6
85,7
85,8
85,9
85,14
85,15
85,17
85,22
85,31
85,32
85,34
85,36
85,40
85,44
85,56
85,92
85,101
85,105
85,111
85,115
85,119
85,124
85,126
86,10
86,11
86,12
86,13
86,16
86,18
86,19
86,21
86,25
86,28
86,35
86,37
86,42
86,46
86,72
86,94
86,97
86,99
86,103
86,107
86,109
86,113
86,117
86,120
86,122
87,4
87,5
87,6
87,7
87,9
87,14
87,15
87,17
87,20
87,22
87,25
87,31
87,33
87,38
87,40
87,43
87,90
87,101
87,105
87,108
87,111
87,115
87,124
87,126
88,8
88,10
88,11
88,13
88,16
88,18
88,19
88,21
88,23
88,36
88,46
88,92
88,94
88,96
88,98
88,103
88,113
88,116
88,118
88,120
88,122
89,4
89,6
89,9
89,12
89,14
89,15
89,17
89,19
89,20
89,22
89,24
89,25
89,27
89,34
89,37
89,39
89,41
89,43
89,106
89,109
89,111
89,124
89,126
90,5
90,7
90,8
90,10
90,13
90,16
90,18
90,21
90,23
90,32
90,35
90,40
90,44
90,57
90,102
90,104
90,107
90,112
90,114
90,117
90,120
90,122
91,4
91,6
91,9
91,11
91,12
91,14
91,15
91,17
91,19
91,20
91,22
91,25
91,30
91,34
91,37
91,42
91,61
91,63
91,65
91,109
91,115
91,118
91,124
91,126
92,8
92,13
92,16
92,18
92,21
92,24
92,36
92,38
92,39
92,43
92,49
92,57
92,64
92,66
92,68
92,91
92,103
92,105
92,107
92,110
92,112
92,120
92,122
93,5
93,6
93,7
93,9
93,10
93,11
93,12
93,14
93,15
93,17
93,19
93,20
93,23
93,25
93,33
93,40
93,61
93,67
93,70
93,96
93,101
93,114
93,116
93,118
93,124
93,126
94,8
94,13
94,16
94,18
94,21
94,24
94,28
94,34
94,36
94,38
94,42
94,49
94,58
94,64
94,66
94,72
94,74
94,76
94,90
94,104
94,106
94,108
94,110
94,112
94,120
94,122
95,5
95,7
95,9
95,11
95,12
95,14
95,15
95,17
95,19
95,20
95,22
95,35
95,37
95,39
95,43
95,67
95,78
95,80
95,102
95,114
95,116
95,118
95,123
95,125
95,127
96,4
96,6
96,8
96,10
96,13
96,16
96,18
96,21
96,23
96,24
96,32
96,40
96,68
96,75
96,82
96,90
96,100
96,104
96,106
96,108
96,110
96,120
97,7
97,9
97,11
97,12
97,14
97,15
97,17
97,19
97,20
97,22
97,26
97,33
97,35
97,37
97,38
97,42
97,67
97,73
97,79
97,85
97,102
97,112
97,114
97,116
97,118
97,121
97,124
97,126
98,5
98,6
98,10
98,13
98,16
98,18
98,21
98,24
98,36
98,40
98,60
98,69
98,83
98,96
98,100
98,105
98,107
98,109
98,111
98,122
99,4
99,7
99,8
99,9
99,11
99,12
99,15
99,17
99,19
99,20
99,23
99,24
99,32
99,34
99,38
99,42
99,45
99,89
99,94
99,98
99,102
99,104
99,113
99,115
99,117
99,119
99,124
99,126
100,6
100,10
100,13
100,14
100,16
100,18
100,21
100,24
100,35
100,40
100,66
100,71
100,92
100,100
100,107
100,111
100,120
100,122
101,4
101,6
101,8
101,9
101,11
101,12
101,15
101,17
101,19
101,20
101,22
101,33
101,36
101,38
101,39
101,42
101,56
101,82
101,90
101,94
101,96
101,98
101,103
101,105
101,109
101,114
101,116
101,124
101,126
102,6
102,10
102,13
102,14
102,16
102,18
102,21
102,23
102,25
102,32
102,41
102,49
102,62
102,76
102,88
102,92
102,101
102,108
102,111
102,113
102,118
102,120
102,122
102,127
103,4
103,7
103,8
103,9
103,11
103,12
103,15
103,17
103,19
103,20
103,29
103,34
103,36
103,37
103,39
103,47
103,66
103,95
103,97
103,99
103,102
103,104
103,106
103,116
103,124
104,5
104,10
104,13
104,16
104,18
104,21
104,23
104,40
104,43
104,61
104,81
104,88
104,90
104,92
104,94
104,109
104,112
104,114
104,118
104,120
104,122
104,125
105,2
105,3
105,6
105,7
105,8
105,9
105,11
105,12
105,14
105,15
105,17
105,19
105,20
105,23
105,26
105,32
105,34
105,36
105,38
105,41
105,46
105,96
105,100
105,103
105,105
105,107
105,110
105,116
105,126
106,10
106,13
106,15
106,16
106,18
106,21
106,23
106,35
106,39
106,87
106,90
106,93
106,98
106,101
106,112
106,114
106,117
106,119
106,121
106,123
107,2
107,4
107,5
107,7
107,8
107,9
107,12
107,14
107,17
107,19
107,20
107,33
107,37
107,42
107,46
107,58
107,66
107,92
107,96
107,102
107,104
107,106
107,108
107,110
107,124
107,126
108,6
108,10
108,11
108,13
108,15
108,16
108,21
108,22
108,23
108,25
108,29
108,36
108,40
108,78
108,88
108,90
108,94
108,99
108,113
108,115
108,118
108,120
108,122
109,2
109,4
109,7
109,8
109,9
109,12
109,14
109,17
109,18
109,19
109,32
109,34
109,38
109,56
109,63
109,76
109,81
109,86
109,97
109,100
109,102
109,106
109,108
109,111
109,116
109,124
109,126
110,3
110,5
110,10
110,11
110,13
110,15
110,16
110,20
110,22
110,28
110,37
110,41
110,51
110,79
110,89
110,92
110,94
110,96
110,104
110,113
110,118
110,120
110,122
110,127
111,4
111,6
111,7
111,8
111,9
111,12
111,14
111,15
111,17
111,18
111,20
111,23
111,33
111,35
111,58
111,85
111,88
111,91
111,98
111,100
111,103
111,107
111,109
111,111
111,114
111,116
111,123
111,125
112,1
112,2
112,5
112,10
112,11
112,13
112,16
112,19
112,22
112,26
112,61
112,63
112,77
112,80
112,93
112,95
112,102
112,105
112,118
112,120
112,127
113,3
113,6
113,8
113,9
113,12
113,14
113,15
113,17
113,18
113,20
113,24
113,29
113,33
113,86
113,88
113,90
113,97
113,99
113,108
113,110
113,112
113,114
113,116
113,121
113,123
113,125
114,0
114,2
114,4
114,5
114,7
114,10
114,11
114,13
114,16
114,19
114,21
114,22
114,25
114,84
114,92
114,94
114,101
114,103
114,105
114,107
114,118
114,127
115,6
115,8
115,9
115,12
115,14
115,15
115,17
115,18
115,20
115,87
115,89
115,96
115,98
115,110
115,112
115,114
115,116
115,119
115,121
115,123
115,125
116,2
116,5
116,7
116,10
116,11
116,13
116,16
116,19
116,22
116,24
116,29
116,85
116,91
116,93
116,100
116,102
116,104
116,108
116,126
117,1
117,4
117,8
117,9
117,12
117,14
117,15
117,17
117,18
117,20
117,21
117,83
117,88
117,95
117,98
117,106
117,109
117,111
117,113
117,115
117,117
117,119
117,121
117,123
117,127
118,2
118,5
118,6
118,10
118,11
118,13
118,16
118,19
118,22
118,24
118,29
118,51
118,53
118,86
118,91
118,96
118,101
118,103
119,0
119,3
119,7
119,8
119,9
119,12
119,14
119,15
119,17
119,18
119,20
119,50
119,84
119,89
119,93
119,99
119,105
119,107
119,110
119,112
119,114
119,116
119,118
119,120
119,122
119,125
120,1
120,4
120,5
120,7
120,11
120,18
120,19
120,22
120,26
120,49
120,52
120,87
120,91
120,94
120,96
120,98
120,101
120,104
120,108
120,124
121,2
121,3
121,6
121,16
121,17
121,21
121,23
121,53
121,82
121,84
121,86
121,89
121,110
121,114
121,117
121,119
122,0
122,4
122,6
122,14
122,15
122,18
122,20
122,24
122,50
122,54
122,92
122,94
122,98
122,100
122,102
122,104
122,106
122,108
122,112
122,116
122,121
122,124
123,2
123,16
123,17
123,27
123,52
123,82
123,86
123,88
123,90
123,96
123,111
123,114
123,118
123,122
124,1
124,4
124,11
124,13
124,14
124,15
124,18
124,19
124,21
124,23
124,25
124,51
124,54
124,84
124,93
124,99
124,101
124,103
124,105
124,107
124,109
124,116
124,120
125,3
125,16
125,17
125,20
125,22
125,27
125,31
125,53
125,55
125,81
125,86
125,90
125,92
125,95
125,97
125,112
125,114
126,0
126,2
126,12
126,13
126,14
126,15
126,18
126,20
126,25
126,29
126,32
126,51
126,56
126,84
126,88
126,98
126,100
126,104
126,106
126,108
126,110
126,116
126,118
126,120
126,122
127,1
127,11
127,16
127,18
127,21
127,23
127,26
127,31
127,33
127,53
127,54
127,82
127,90
127,93
127,95
127,102
127,112
127,114
127,121
128,2
128,12
128,13
128,14
128,15
128,19
128,24
128,27
128,29
128,34
128,51
128,55
128,57
128,80
128,84
128,86
128,88
128,97
128,99
128,104
128,107
128,110
128,116
128,119
129,0
129,11
129,16
129,18
129,20
129,21
129,25
129,28
129,30
129,32
129,35
129,53
129,91
129,93
129,102
129,108
129,113
129,117
130,1
130,3
130,12
130,13
130,14
130,15
130,17
130,22
130,24
130,33
130,34
130,51
130,55
130,80
130,82
130,85
130,88
130,90
130,95
130,97
130,100
130,103
130,105
130,110
130,111
130,114
130,115
130,120
131,0
131,2
131,11
131,18
131,26
131,28
131,30
131,36
131,38
131,52
131,54
131,56
131,77
131,84
131,92
131,99
131,106
131,107
131,108
131,112
131,113
131,116
131,118
132,3
132,12
132,13
132,14
132,15
132,19
132,24
132,31
132,33
132,35
132,40
132,57
132,81
132,86
132,89
132,94
132,96
132,101
132,102
132,104
132,105
132,109
132,110
132,114
132,119
133,0
133,1
133,2
133,12
133,16
133,17
133,18
133,20
133,28
133,30
133,32
133,37
133,51
133,53
133,55
133,79
133,83
133,88
133,91
133,97
133,102
133,103
133,107
133,111
133,112
134,3
134,4
134,13
134,14
134,21
134,26
134,34
134,36
134,56
134,85
134,92
134,98
134,101
134,105
134,106
134,108
134,109
134,113
134,114
134,115
135,0
135,2
135,12
135,17
135,19
135,24
135,27
135,29
135,32
135,40
135,52
135,54
135,78
135,81
135,87
135,102
135,103
135,104
135,110
135,112
136,1
136,3
136,5
136,12
136,13
136,14
136,16
136,18
136,30
136,35
136,55
136,57
136,83
136,95
136,97
136,99
136,101
136,106
136,108
136,110
136,113
137,0
137,2
137,4
137,6
137,25
137,27
137,51
137,53
137,78
137,102
137,104
137,105
137,108
137,111
138,1
138,3
138,5
138,7
138,12
138,13
138,15
138,22
138,30
138,54
138,56
138,98
138,101
138,106
138,109
139,0
139,2
139,4
139,5
139,6
139,8
139,9
139,10
139,12
139,19
139,24
139,32
139,99
139,102
139,104
139,107
140,1
140,3
140,6
140,7
140,9
140,11
140,12
140,13
140,15
140,16
140,21
140,27
140,34
140,52
140,54
140,56
140,100
140,103
140,106
140,108
141,0
141,2
141,4
141,5
141,8
141,10
141,14
141,18
141,24
141,55
141,101
141,104
141,106
142,1
142,3
142,6
142,7
142,8
142,9
142,10
142,11
142,12
142,13
142,15
142,16
142,19
142,21
142,22
142,53
142,57
142,64
142,102
142,105
143,0
143,2
143,4
143,5
143,12
143,14
143,17
143,18
143,23
143,27
143,54
143,60
143,67
143,99
143,103
144,1
144,6
144,7
144,8
144,9
144,10
144,11
144,13
144,15
144,19
144,21
144,24
144,52
144,55
144,58
144,62
144,65
145,2
145,4
145,5
145,9
145,11
145,12
145,14
145,16
145,17
145,18
145,22
145,26
145,54
145,60
145,63
146,0
146,3
146,6
146,7
146,8
146,10
146,12
146,13
146,17
146,19
146,20
146,23
146,58
147,1
147,4
147,5
147,9
147,11
147,14
147,15
147,21
147,24
147,54
147,127
148,0
148,2
148,6
148,7
148,8
148,10
148,11
148,13
148,16
148,17
148,18
148,20
148,22
148,27
148,62
148,63
148,125
149,1
149,3
149,5
149,7
149,9
149,10
149,12
149,14
149,16
149,19
149,23
149,60
149,64
149,66
149,122
149,124
149,127
